\* Problem: Unknown *\

Maximize
 obj: + xp_0_0 + xp_1_0 + xp_1_1 + xp_2_0 + xp_2_1 + xp_3_0 + xp_3_1
 + xp_4_0 + xp_5_0 + xp_6_0 + xp_7_0 + xp_8_0 + xp_9_0 + xp_9_1
 + xp_10_0 + xp_11_0 + xp_11_1 + xp_12_0 + xp_12_1 + xp_12_2 + xp_13_0
 + xp_13_1 + xp_13_2 + xp_14_0 + xp_14_1 + xp_15_0 + xp_16_0 + xp_17_0
 + xp_17_1 + xp_18_0 + xp_18_1 + xp_18_2 + xp_18_3 + xp_19_0 + xp_19_1
 + xp_20_0 + xp_21_0 + xp_22_0 + xp_22_1 + xp_23_0 + xp_24_0 + xp_24_1
 + xp_24_2 + xp_24_3 + xp_25_0 + xp_26_0 + xp_27_0 + xp_28_0 + xp_28_1
 + xp_29_0 + xp_30_0 + xp_30_1 + xp_31_0 + xp_32_0 + xp_32_1 + xp_32_2
 + xp_33_0 + xp_34_0 + xp_34_1 + xp_35_0 + xp_36_0 + xp_37_0 + xp_38_0
 + xp_38_1 + xp_39_0 + xp_40_0 + xp_40_1 + xp_40_2 + xp_41_0 + xp_42_0
 + xp_42_1 + xp_42_2 + xp_43_0 + xp_44_0 + xp_45_0 + xp_46_0 + xp_47_0
 + xp_48_0 + xp_49_0 + xp_50_0 + xp_50_1 + xp_51_0 + xp_52_0 + xp_53_0
 + xp_53_1 + xp_54_0 + xp_55_0 + xp_56_0 + xp_57_0 + xp_57_1 + xp_58_0
 + xp_58_1 + xp_58_2 + xp_59_0 + xp_60_0 + xp_60_1 + xp_61_0 + xp_61_1
 + xp_62_0 + xp_63_0 + xp_63_1 + xp_64_0 + xp_65_0 + xp_65_1 + xp_66_0
 + xp_67_0 + xp_67_1 + xp_68_0 + xp_68_1 + xp_68_2 + xp_69_0 + xp_70_0
 + xp_71_0 + xp_72_0 + xp_73_0 + xp_74_0 + xp_74_1 + xp_75_0 + xp_75_1
 + xp_76_0 + xp_77_0 + xp_77_1 + xp_77_2 + xp_78_0 + xp_78_1 + xp_78_2
 + xp_78_3 + xp_78_4 + xp_79_0 + xp_79_1 + xp_79_2 + xp_80_0 + xp_80_1
 + xp_81_0 + xp_81_1 + xp_81_2 + xp_82_0 + xp_82_1 + xp_83_0 + xp_83_1
 + xp_84_0 + xp_85_0 + xp_85_1 + xp_85_2 + xp_86_0 + xp_87_0 + xp_88_0
 + xp_89_0 + xp_89_1 + xp_90_0 + xp_90_1 + xp_90_2 + xp_91_0 + xp_91_1
 + xp_91_2 + xp_92_0 + xp_92_1 + xp_93_0 + xp_94_0 + xp_94_1 + xp_94_2
 + xp_95_0 + xp_95_1 + xp_96_0 + xp_96_1 + xp_97_0 + xp_98_0 + xp_98_1
 + xp_98_2 + xp_99_0 + xp_99_1 + xp_100_0 + xp_101_0 + xp_102_0
 + xp_103_0 + xp_104_0 + xp_105_0 + xp_105_1 + xp_106_0 + xp_107_0
 + xp_108_0 + xp_108_1 + xp_108_2 + xp_109_0 + xp_109_1 + xp_110_0
 + xp_111_0 + xp_111_1 + xp_111_2 + xp_112_0 + xp_112_1 + xp_112_2
 + xp_113_0 + xp_114_0 + xp_115_0 + xp_115_1 + xp_116_0 + xp_116_1
 + xp_117_0 + xp_118_0 + xp_119_0 + xp_119_1 + xp_120_0 + xp_120_1
 + xp_120_2 + xp_121_0 + xp_122_0 + xp_123_0 + xp_123_1 + xp_124_0
 + xp_124_1 + xp_125_0 + xp_125_1 + xp_126_0 + xp_126_1 + xp_126_2
 + xp_126_3 + xp_126_4 + xp_127_0 + xp_127_1 + xp_128_0 + xp_128_1
 + xp_128_2 + xp_129_0 + xp_129_1 + xp_130_0 + xp_131_0 + xp_131_1
 + xp_131_2 + xp_131_3

Subject To
 r_1: + xp_128_2 + xp_128_1 + xp_123_1 + xp_122_0 + xp_121_0 + xp_108_2
 + xp_107_0 + xp_78_3 + xp_67_1 + xp_57_1 + xp_40_2 + xp_40_1 + xp_25_0
 + xp_22_1 + xp_18_3 + xp_18_2 + xp_18_1 + xp_16_0 + xp_13_2 + xp_13_1
 + xp_4_0 <= 40000
 r_2: + xp_131_2 + xp_131_1 + xp_127_1 + xp_126_4 + xp_126_1 + xp_120_1
 + xp_120_0 + xp_94_2 + xp_94_1 + xp_93_0 + xp_90_1 + xp_89_1 + xp_85_2
 + xp_85_1 + xp_85_0 + xp_77_2 + xp_77_1 + xp_75_1 + xp_75_0 + xp_74_1
 + xp_71_0 + xp_66_0 + xp_65_1 + xp_65_0 + xp_61_1 + xp_55_0 + xp_52_0
 + xp_48_0 + xp_42_2 + xp_42_1 + xp_38_1 + xp_32_2 + xp_32_0 + xp_28_1
 + xp_28_0 + xp_24_3 + xp_24_2 + xp_24_0 + xp_19_1 + xp_19_0 + xp_12_2
 + xp_12_1 + xp_1_1 <= 39217.4913693901
 r_3: + xp_126_3 + xp_114_0 + xp_105_1 + xp_95_0 + xp_91_2 + xp_85_2
 + xp_83_1 + xp_79_2 + xp_76_0 + xp_68_2 + xp_58_2 + xp_34_0 + xp_32_1
 + xp_24_2 <= 40000
 r_4: + xp_117_0 + xp_111_1 + xp_95_1 + xp_91_1 + xp_91_0 + xp_84_0
 + xp_79_1 + xp_79_0 + xp_78_4 + xp_46_0 + xp_43_0 + xp_40_2 + xp_40_1
 + xp_40_0 + xp_34_1 <= 40000
 r_5: + xp_130_0 + xp_111_1 + xp_99_0 + xp_78_4 + xp_7_0 + xp_2_0
 <= 40000
 r_6: + xp_126_4 + xp_126_3 + xp_126_2 + xp_119_0 + xp_114_0 + xp_95_0
 + xp_91_2 + xp_83_1 + xp_83_0 + xp_82_1 + xp_81_0 + xp_79_2 + xp_70_0
 + xp_68_2 + xp_68_1 + xp_58_2 + xp_58_1 + xp_53_0 + xp_45_0 + xp_34_0
 + xp_32_2 + xp_32_1 + xp_30_1 + xp_18_1 <= 40000
 r_7: + xp_119_1 + xp_112_2 + xp_112_1 + xp_111_2 + xp_104_0 + xp_88_0
 + xp_82_0 + xp_81_2 + xp_81_1 + xp_78_2 + xp_53_1 + xp_50_1 + xp_44_0
 + xp_27_0 + xp_18_3 + xp_18_2 + xp_18_0 + xp_3_1 <= 40000
 r_8: + xp_131_2 + xp_131_1 + xp_127_1 + xp_126_4 + xp_126_1 + xp_120_1
 + xp_120_0 + xp_118_0 + xp_103_0 + xp_94_2 + xp_94_1 + xp_90_1
 + xp_89_1 + xp_77_2 + xp_77_1 + xp_74_1 + xp_71_0 + xp_61_1 + xp_55_0
 + xp_42_2 + xp_42_1 + xp_38_1 + xp_32_2 + xp_32_0 + xp_24_3 + xp_24_2
 + xp_24_0 + xp_12_2 + xp_12_1 + xp_1_1 <= 40000
 r_9: + xp_131_3 + xp_131_0 + xp_127_0 + xp_123_1 + xp_122_0 + xp_120_2
 + xp_108_2 + xp_78_3 + xp_77_0 + xp_67_1 + xp_57_1 + xp_42_0 + xp_33_0
 + xp_32_1 + xp_24_1 <= 40000
 r_10: + xp_112_2 + xp_112_1 + xp_111_2 + xp_111_1 + xp_106_0 + xp_99_0
 + xp_98_0 + xp_88_0 + xp_85_0 + xp_78_4 + xp_78_2 + xp_50_1 + xp_26_0
 + xp_24_0 + xp_8_0 + xp_7_0 + xp_3_1 + xp_2_0 <= 40000
 r_11: + xp_119_0 + xp_112_0 + xp_111_0 + xp_95_0 + xp_91_2 + xp_82_1
 + xp_81_0 + xp_79_2 + xp_78_3 + xp_78_1 + xp_78_0 + xp_59_0 + xp_53_0
 + xp_50_0 + xp_49_0 + xp_45_0 + xp_34_0 + xp_18_1 + xp_4_0 + xp_3_0
 <= 40000
 r_12: + xp_129_1 + xp_128_1 + xp_128_0 + xp_123_0 + xp_117_0 + xp_112_1
 + xp_111_2 + xp_111_1 + xp_108_1 + xp_101_0 + xp_95_1 + xp_91_1
 + xp_82_0 + xp_81_1 + xp_80_1 + xp_79_1 + xp_78_4 + xp_78_2 + xp_78_0
 + xp_73_0 + xp_63_1 + xp_60_1 + xp_50_1 + xp_46_0 + xp_44_0 + xp_40_1
 + xp_40_0 + xp_18_2 + xp_18_0 + xp_17_1 + xp_15_0 + xp_14_1 + xp_13_1
 + xp_13_0 + xp_9_0 <= 39928.1183932347
 r_13: + xp_129_0 + xp_128_2 + xp_123_1 + xp_120_2 + xp_120_1 + xp_119_1
 + xp_112_2 + xp_109_1 + xp_100_0 + xp_96_1 + xp_92_1 + xp_91_0
 + xp_90_0 + xp_81_2 + xp_80_0 + xp_79_0 + xp_75_1 + xp_68_0 + xp_63_0
 + xp_60_0 + xp_53_1 + xp_40_2 + xp_34_1 + xp_31_0 + xp_30_0 + xp_18_3
 + xp_17_0 + xp_13_2 + xp_9_1 <= 39928.1183932347
 r_14: + xp_131_3 + xp_131_2 + xp_131_1 + xp_131_0 + xp_126_4 + xp_126_3
 + xp_126_2 + xp_125_1 + xp_125_0 + xp_124_1 + xp_124_0 + xp_115_1
 + xp_115_0 + xp_99_1 + xp_98_2 + xp_98_1 + xp_94_2 + xp_94_1 + xp_94_0
 + xp_86_0 + xp_85_2 + xp_85_1 + xp_77_2 + xp_77_1 + xp_77_0 + xp_68_2
 + xp_68_1 + xp_65_1 + xp_65_0 + xp_58_2 + xp_58_1 + xp_56_0 + xp_51_0
 + xp_41_0 + xp_38_1 + xp_38_0 + xp_35_0 + xp_32_2 + xp_32_1 + xp_30_1
 + xp_24_3 + xp_24_2 + xp_24_1 + xp_20_0 + xp_19_1 + xp_19_0 + xp_12_2
 + xp_12_1 + xp_12_0 + xp_2_1 + xp_0_0 <= 39928.1183932347
 r_15: + xp_131_2 + xp_131_0 + xp_126_4 + xp_126_3 + xp_126_2 + xp_125_0
 + xp_124_0 + xp_120_2 + xp_120_1 + xp_116_0 + xp_115_0 + xp_109_1
 + xp_99_1 + xp_98_1 + xp_96_1 + xp_94_2 + xp_94_0 + xp_92_1 + xp_90_0
 + xp_89_1 + xp_89_0 + xp_86_0 + xp_85_2 + xp_85_1 + xp_77_2 + xp_77_0
 + xp_75_1 + xp_68_2 + xp_68_1 + xp_68_0 + xp_65_0 + xp_58_2 + xp_58_1
 + xp_51_0 + xp_42_2 + xp_42_0 + xp_38_1 + xp_38_0 + xp_36_0 + xp_32_2
 + xp_32_1 + xp_28_1 + xp_24_3 + xp_24_1 + xp_19_1 + xp_12_2 + xp_12_0
 + xp_11_0 + xp_0_0 <= 39928.1183932347
 r_16: + xp_128_0 + xp_123_0 + xp_108_1 + xp_108_0 + xp_78_4 + xp_78_2
 + xp_78_1 + xp_78_0 + xp_73_0 + xp_67_0 + xp_57_0 + xp_46_0 + xp_44_0
 + xp_40_0 + xp_22_0 + xp_18_0 + xp_13_0 + xp_6_0 <= 40000
 r_17: + xp_131_3 + xp_129_1 + xp_128_1 + xp_126_0 + xp_124_1 + xp_112_1
 + xp_111_2 + xp_111_1 + xp_109_0 + xp_97_0 + xp_95_1 + xp_91_1
 + xp_90_2 + xp_81_1 + xp_80_1 + xp_79_1 + xp_63_1 + xp_62_0 + xp_61_0
 + xp_60_1 + xp_47_0 + xp_40_1 + xp_22_1 + xp_18_2 + xp_17_1 + xp_13_1
 + xp_9_0 + xp_1_0 <= 39217.4913693901
 r_18: + xp_126_1 + xp_126_0 + xp_106_0 + xp_99_0 + xp_98_0 + xp_92_1
 + xp_92_0 + xp_85_0 + xp_68_0 + xp_58_0 + xp_48_0 + xp_32_0 + xp_30_0
 + xp_26_0 + xp_24_0 + xp_5_0 + xp_2_0 <= 40000
 r_19: + xp_131_3 + xp_131_1 + xp_125_1 + xp_124_1 + xp_116_1 + xp_115_1
 + xp_110_0 + xp_108_1 + xp_98_2 + xp_94_1 + xp_78_0 + xp_77_1 + xp_65_1
 + xp_56_0 + xp_42_1 + xp_28_0 + xp_24_2 + xp_19_0 + xp_14_1 + xp_12_1
 + xp_11_1 + xp_3_0 + xp_2_1 <= 39928.1183932347
 r_20: + xp_129_0 + xp_128_2 + xp_123_1 + xp_119_1 + xp_119_0 + xp_112_2
 + xp_112_0 + xp_111_0 + xp_108_2 + xp_108_0 + xp_107_0 + xp_95_0
 + xp_91_2 + xp_91_0 + xp_82_1 + xp_81_2 + xp_81_0 + xp_80_0 + xp_79_2
 + xp_79_0 + xp_78_3 + xp_78_1 + xp_69_0 + xp_64_0 + xp_63_0 + xp_60_0
 + xp_50_0 + xp_49_0 + xp_45_0 + xp_40_2 + xp_18_3 + xp_18_1 + xp_17_0
 + xp_14_0 + xp_13_2 + xp_10_0 + xp_9_1 + xp_4_0 <= 39217.4913693901
 r_21: + xp_126_3 + xp_113_0 + xp_105_1 + xp_99_1 + xp_86_0 + xp_85_2
 + xp_83_1 + xp_77_2 + xp_77_1 + xp_77_0 + xp_68_2 + xp_65_1 + xp_65_0
 + xp_58_2 + xp_38_1 + xp_38_0 + xp_32_1 + xp_24_2 + xp_20_0 + xp_2_1
 + xp_0_0 <= 40000
 r_22: + xp_126_4 + xp_126_2 + xp_124_1 + xp_124_0 + xp_105_0 + xp_98_2
 + xp_98_1 + xp_94_2 + xp_94_1 + xp_94_0 + xp_85_1 + xp_83_0 + xp_68_1
 + xp_58_1 + xp_41_0 + xp_32_2 + xp_30_1 + xp_24_3 + xp_24_1 <= 40000
 r_23: + xp_128_2 + xp_128_1 + xp_128_0 + xp_119_1 + xp_117_0 + xp_112_2
 + xp_112_1 + xp_111_2 + xp_111_1 + xp_104_0 + xp_100_0 + xp_95_1
 + xp_91_1 + xp_91_0 + xp_84_0 + xp_82_0 + xp_81_2 + xp_81_1 + xp_80_1
 + xp_80_0 + xp_79_1 + xp_79_0 + xp_78_4 + xp_78_2 + xp_73_0 + xp_60_1
 + xp_60_0 + xp_53_1 + xp_50_1 + xp_46_0 + xp_44_0 + xp_40_2 + xp_40_1
 + xp_40_0 + xp_34_1 + xp_21_0 + xp_18_3 + xp_18_2 + xp_18_0 + xp_15_0
 + xp_9_1 + xp_9_0 + xp_3_1 <= 39928.1183932347
 r_24: + xp_128_0 + xp_126_4 + xp_126_1 + xp_103_0 + xp_94_2 + xp_94_1
 + xp_90_1 + xp_89_1 + xp_74_1 + xp_61_1 + xp_40_0 + xp_39_0 + xp_38_1
 + xp_22_0 + xp_18_0 + xp_13_0 + xp_12_2 + xp_12_1 + xp_1_1 <= 40000
 r_25: + xp_131_3 + xp_131_0 + xp_127_0 + xp_126_3 + xp_126_2 + xp_126_0
 + xp_120_2 + xp_94_0 + xp_90_2 + xp_90_0 + xp_89_0 + xp_77_0 + xp_74_0
 + xp_61_0 + xp_42_0 + xp_38_0 + xp_32_1 + xp_24_1 + xp_12_0 + xp_1_0
 <= 40000
 r_26: + xp_128_2 + xp_128_1 + xp_123_1 + xp_121_0 + xp_112_2 + xp_112_1
 + xp_112_0 + xp_108_2 + xp_107_0 + xp_81_2 + xp_81_1 + xp_81_0
 + xp_79_2 + xp_79_1 + xp_79_0 + xp_78_3 + xp_67_1 + xp_64_0 + xp_60_1
 + xp_60_0 + xp_57_1 + xp_47_0 + xp_40_2 + xp_40_1 + xp_37_0 + xp_29_0
 + xp_25_0 + xp_22_1 + xp_18_3 + xp_18_2 + xp_18_1 + xp_17_1 + xp_17_0
 + xp_13_2 + xp_13_1 + xp_4_0 <= 39217.4913693901
 r_27: + xp_131_2 + xp_127_1 + xp_126_4 + xp_125_0 + xp_120_1 + xp_116_0
 + xp_115_0 + xp_108_0 + xp_99_1 + xp_98_1 + xp_96_1 + xp_94_2 + xp_92_1
 + xp_89_1 + xp_86_0 + xp_85_2 + xp_85_1 + xp_82_1 + xp_78_1 + xp_77_2
 + xp_75_1 + xp_74_1 + xp_72_0 + xp_67_0 + xp_65_0 + xp_58_2 + xp_58_1
 + xp_57_0 + xp_52_0 + xp_50_0 + xp_42_2 + xp_38_1 + xp_32_2 + xp_28_1
 + xp_24_3 + xp_23_0 + xp_19_1 + xp_14_0 + xp_12_2 + xp_11_0
 <= 39217.4913693901
 r_28: + xp_131_3 + xp_131_1 + xp_126_1 + xp_126_0 + xp_125_1 + xp_124_1
 + xp_120_0 + xp_116_1 + xp_115_1 + xp_109_0 + xp_99_0 + xp_98_2
 + xp_98_0 + xp_96_0 + xp_94_1 + xp_92_0 + xp_90_2 + xp_90_1 + xp_85_0
 + xp_77_1 + xp_75_0 + xp_65_1 + xp_58_0 + xp_54_0 + xp_48_0 + xp_42_1
 + xp_32_0 + xp_28_0 + xp_26_0 + xp_24_2 + xp_24_0 + xp_19_0 + xp_12_1
 + xp_11_1 <= 39217.4913693901
 r_29: + xp_129_1 + xp_129_0 + xp_95_1 + xp_95_0 + xp_93_0 + xp_87_0
 + xp_71_0 + xp_62_0 + xp_49_0 + xp_45_0 + xp_10_0 + xp_9_1 + xp_9_0
 + xp_1_1 + xp_1_0 <= 39217.4913693901
 r_30: + xp_125_1 + xp_125_0 + xp_121_0 + xp_102_0 + xp_99_1 + xp_99_0
 + xp_96_1 + xp_96_0 + xp_92_1 + xp_92_0 + xp_57_1 + xp_57_0 + xp_37_0
 + xp_26_0 + xp_23_0 + xp_11_1 + xp_11_0 <= 39217.4913693901

Bounds
 0 <= xp_0_0 <= 236.501768891198
 0 <= xp_1_0 <= 109.794955278539
 0 <= xp_1_1 <= 73.1966368523596
 0 <= xp_2_0 <= 34.5834290543414
 0 <= xp_2_1 <= 80.6946677934632
 0 <= xp_3_0 <= 127.9091410411
 0 <= xp_3_1 <= 54.8182033033285
 0 <= xp_4_0 <= 790.69543906669
 0 <= xp_5_0 <= 1085.86021655436
 0 <= xp_6_0 <= 1796.02614269413
 0 <= xp_7_0 <= 639.743891045352
 0 <= xp_8_0 <= 1513.21494922396
 0 <= xp_9_0 <= 65.0842298077118
 0 <= xp_9_1 <= 43.3894865384745
 0 <= xp_10_0 <= 54.9635395858874
 0 <= xp_11_0 <= 24.9714158214729
 0 <= xp_11_1 <= 16.6476105476486
 0 <= xp_12_0 <= 1657.52066541556
 0 <= xp_12_1 <= 207.190083176945
 0 <= xp_12_2 <= 207.190083176945
 0 <= xp_13_0 <= 151.532893151573
 0 <= xp_13_1 <= 25.2554821919288
 0 <= xp_13_2 <= 75.7664465757863
 0 <= xp_14_0 <= 176.358972690487
 0 <= xp_14_1 <= 44.0897431726217
 0 <= xp_15_0 <= 508.280617276223
 0 <= xp_16_0 <= 2647.03613902274
 0 <= xp_17_0 <= 148.870596702881
 0 <= xp_17_1 <= 148.870596702881
 0 <= xp_18_0 <= 179.919711613178
 0 <= xp_18_1 <= 107.951826967907
 0 <= xp_18_2 <= 35.9839423226356
 0 <= xp_18_3 <= 35.9839423226356
 0 <= xp_19_0 <= 530.543493286372
 0 <= xp_19_1 <= 530.543493286372
 0 <= xp_20_0 <= 128.556548117953
 0 <= xp_21_0 <= 275.148007662525
 0 <= xp_22_0 <= 494.01123680681
 0 <= xp_22_1 <= 741.016855210215
 0 <= xp_23_0 <= 52.1228758813283
 0 <= xp_24_0 <= 170.737101033324
 0 <= xp_24_1 <= 102.442260619995
 0 <= xp_24_2 <= 34.1474202066649
 0 <= xp_24_3 <= 34.1474202066649
 0 <= xp_25_0 <= 580.222077142847
 0 <= xp_26_0 <= 15.3924335619132
 0 <= xp_27_0 <= 338.765662255325
 0 <= xp_28_0 <= 334.603759618413
 0 <= xp_28_1 <= 334.603759618413
 0 <= xp_29_0 <= 2454.20131684581
 0 <= xp_30_0 <= 128.69527820585
 0 <= xp_30_1 <= 55.1551192310786
 0 <= xp_31_0 <= 191.11721156487
 0 <= xp_32_0 <= 1805.71082406828
 0 <= xp_32_1 <= 225.713853008535
 0 <= xp_32_2 <= 225.713853008535
 0 <= xp_33_0 <= 8081.15974389765
 0 <= xp_34_0 <= 51.2244334073282
 0 <= xp_34_1 <= 461.019900665954
 0 <= xp_35_0 <= 261.737432499142
 0 <= xp_36_0 <= 319.805883576058
 0 <= xp_37_0 <= 365.851060368563
 0 <= xp_38_0 <= 302.154131439822
 0 <= xp_38_1 <= 33.5726812710913
 0 <= xp_39_0 <= 1577.69140912279
 0 <= xp_40_0 <= 425.736214977465
 0 <= xp_40_1 <= 170.294485990986
 0 <= xp_40_2 <= 255.441728986479
 0 <= xp_41_0 <= 80.1331412472132
 0 <= xp_42_0 <= 227.71552999105
 0 <= xp_42_1 <= 91.0862119964201
 0 <= xp_42_2 <= 136.62931799463
 0 <= xp_43_0 <= 493.416679287251
 0 <= xp_44_0 <= 459.857210405483
 0 <= xp_45_0 <= 42.6760175150039
 0 <= xp_46_0 <= 1609.99570101882
 0 <= xp_47_0 <= 881.398491772727
 0 <= xp_48_0 <= 2914.58702282424
 0 <= xp_49_0 <= 88.3248226278022
 0 <= xp_50_0 <= 550.573475500844
 0 <= xp_50_1 <= 235.960060928933
 0 <= xp_51_0 <= 711.553227018741
 0 <= xp_52_0 <= 664.252873240502
 0 <= xp_53_0 <= 133.319614469086
 0 <= xp_53_1 <= 57.1369776296082
 0 <= xp_54_0 <= 3703.89516101196
 0 <= xp_55_0 <= 1188.5204815982
 0 <= xp_56_0 <= 96.0540703820676
 0 <= xp_57_0 <= 165.313415216015
 0 <= xp_57_1 <= 41.3283538040038
 0 <= xp_58_0 <= 3191.53191543476
 0 <= xp_58_1 <= 911.866261552789
 0 <= xp_58_2 <= 455.933130776395
 0 <= xp_59_0 <= 10674.355396427
 0 <= xp_60_0 <= 475.844201486955
 0 <= xp_60_1 <= 203.933229208695
 0 <= xp_61_0 <= 1456.15063973563
 0 <= xp_61_1 <= 970.767093157089
 0 <= xp_62_0 <= 131.595397662365
 0 <= xp_63_0 <= 92.5329686273467
 0 <= xp_63_1 <= 39.6569865545771
 0 <= xp_64_0 <= 997.205084193473
 0 <= xp_65_0 <= 471.48411301019
 0 <= xp_65_1 <= 52.3871236677989
 0 <= xp_66_0 <= 1684.77782459001
 0 <= xp_67_0 <= 284.026733287938
 0 <= xp_67_1 <= 121.725742837688
 0 <= xp_68_0 <= 443.262449415129
 0 <= xp_68_1 <= 886.524898830257
 0 <= xp_68_2 <= 147.754149805043
 0 <= xp_69_0 <= 1723.49012530795
 0 <= xp_70_0 <= 633.468006116675
 0 <= xp_71_0 <= 71.0826545605947
 0 <= xp_72_0 <= 600.767342540937
 0 <= xp_73_0 <= 925.659996006555
 0 <= xp_74_0 <= 860.384186553652
 0 <= xp_74_1 <= 95.5982429504058
 0 <= xp_75_0 <= 1592.16558162672
 0 <= xp_75_1 <= 176.907286847413
 0 <= xp_76_0 <= 1727.0574704253
 0 <= xp_77_0 <= 344.288440992561
 0 <= xp_77_1 <= 57.3814068320935
 0 <= xp_77_2 <= 172.14422049628
 0 <= xp_78_0 <= 2807.42793921574
 0 <= xp_78_1 <= 2807.42793921574
 0 <= xp_78_2 <= 11229.711756863
 0 <= xp_78_3 <= 8422.28381764723
 0 <= xp_78_4 <= 2807.42793921574
 0 <= xp_79_0 <= 534.375086190196
 0 <= xp_79_1 <= 427.500068952157
 0 <= xp_79_2 <= 106.875017238039
 0 <= xp_80_0 <= 135.717663131306
 0 <= xp_80_1 <= 90.4784420875377
 0 <= xp_81_0 <= 157.042459499485
 0 <= xp_81_1 <= 78.5212297497425
 0 <= xp_81_2 <= 26.1737432499142
 0 <= xp_82_0 <= 198.463300028753
 0 <= xp_82_1 <= 22.0514777809726
 0 <= xp_83_0 <= 454.955413966453
 0 <= xp_83_1 <= 50.5506015518281
 0 <= xp_84_0 <= 892.959332430816
 0 <= xp_85_0 <= 123.013950796732
 0 <= xp_85_1 <= 246.027901593464
 0 <= xp_85_2 <= 41.0046502655773
 0 <= xp_86_0 <= 172.025308992369
 0 <= xp_87_0 <= 141.768937441484
 0 <= xp_88_0 <= 426.694113203421
 0 <= xp_89_0 <= 2005.68033647992
 0 <= xp_89_1 <= 222.853370719991
 0 <= xp_90_0 <= 13067.3040763689
 0 <= xp_90_1 <= 4355.76802545631
 0 <= xp_90_2 <= 4355.76802545631
 0 <= xp_91_0 <= 819.280443368148
 0 <= xp_91_1 <= 1365.46740561358
 0 <= xp_91_2 <= 546.186962245432
 0 <= xp_92_0 <= 53.6951502108284
 0 <= xp_92_1 <= 13.4237875527071
 0 <= xp_93_0 <= 130.934778196188
 0 <= xp_94_0 <= 190.364105373429
 0 <= xp_94_1 <= 23.7955131716786
 0 <= xp_94_2 <= 23.7955131716786
 0 <= xp_95_0 <= 36.9418405485916
 0 <= xp_95_1 <= 24.6278936990611
 0 <= xp_96_0 <= 92.6981234938908
 0 <= xp_96_1 <= 23.1745308734727
 0 <= xp_97_0 <= 529.552564087107
 0 <= xp_98_0 <= 86.1712031680667
 0 <= xp_98_1 <= 43.0856015840333
 0 <= xp_98_2 <= 14.3618671946778
 0 <= xp_99_0 <= 11.5145972954569
 0 <= xp_99_1 <= 4.93482741233869
 0 <= xp_100_0 <= 505.307829678428
 0 <= xp_101_0 <= 251.035397147082
 0 <= xp_102_0 <= 75.3106191441245
 0 <= xp_103_0 <= 1446.49238314013
 0 <= xp_104_0 <= 132.520264915012
 0 <= xp_105_0 <= 1310.99933062733
 0 <= xp_105_1 <= 145.666592291925
 0 <= xp_106_0 <= 41.6190263691214
 0 <= xp_107_0 <= 451.863714864747
 0 <= xp_108_0 <= 255.917375002126
 0 <= xp_108_1 <= 255.917375002126
 0 <= xp_108_2 <= 341.223166669502
 0 <= xp_109_0 <= 582.745643503641
 0 <= xp_109_1 <= 388.497095669094
 0 <= xp_110_0 <= 133.841503847365
 0 <= xp_111_0 <= 2350.95970667174
 0 <= xp_111_1 <= 293.869963333968
 0 <= xp_111_2 <= 293.869963333968
 0 <= xp_112_0 <= 3292.38868933593
 0 <= xp_112_1 <= 940.682482667409
 0 <= xp_112_2 <= 470.341241333705
 0 <= xp_113_0 <= 427.420794616215
 0 <= xp_114_0 <= 2409.14706925257
 0 <= xp_115_0 <= 133.180884381189
 0 <= xp_115_1 <= 88.7872562541257
 0 <= xp_116_0 <= 96.2786810005676
 0 <= xp_116_1 <= 64.1857873337117
 0 <= xp_117_0 <= 1952.46083228474
 0 <= xp_118_0 <= 3169.652198715
 0 <= xp_119_0 <= 56.7802431178728
 0 <= xp_119_1 <= 6.30891590198587
 0 <= xp_120_0 <= 1525.93848014252
 0 <= xp_120_1 <= 435.982422897863
 0 <= xp_120_2 <= 217.991211448932
 0 <= xp_121_0 <= 75.9051766636834
 0 <= xp_122_0 <= 2285.54516713094
 0 <= xp_123_0 <= 464.646701535263
 0 <= xp_123_1 <= 51.6274112816959
 0 <= xp_124_0 <= 124.500344595629
 0 <= xp_124_1 <= 13.8333716217366
 0 <= xp_125_0 <= 16.4494247077956
 0 <= xp_125_1 <= 10.9662831385304
 0 <= xp_126_0 <= 2549.93168368945
 0 <= xp_126_1 <= 10199.7267347578
 0 <= xp_126_2 <= 7649.79505106836
 0 <= xp_126_3 <= 2549.93168368945
 0 <= xp_126_4 <= 2549.93168368945
 0 <= xp_127_0 <= 289.780728838335
 0 <= xp_127_1 <= 289.780728838335
 0 <= xp_128_0 <= 163.225857702897
 0 <= xp_128_1 <= 81.6129288514486
 0 <= xp_128_2 <= 163.225857702897
 0 <= xp_129_0 <= 24.6080751150758
 0 <= xp_129_1 <= 24.6080751150758
 0 <= xp_130_0 <= 405.554290285772
 0 <= xp_131_0 <= 308.562140261734
 0 <= xp_131_1 <= 231.421605196301
 0 <= xp_131_2 <= 154.281070130867
 0 <= xp_131_3 <= 77.1405350654335

End
